(set-info :smt-lib-version 2.6)
(set-logic QF_FP)
(set-info :source |
Generated by: Chenqi Cui
Generated on: 2025-11-26
Generator: AutoSMTGen
Application: Generating SMT constraints with small solution spaces to make them challenging for SMT solvers
Target solver: Z3, CVC5, Bitwuzla
|)
(set-info :license "https://creativecommons.org/licenses/by/4.0/")
(set-info :category "industrial")
(set-info :status sat)
; benchmark generated from python API

(declare-fun x7 () (_ FloatingPoint 11 53))
(declare-fun x6 () (_ FloatingPoint 11 53))
(declare-fun x5 () (_ FloatingPoint 11 53))
(declare-fun x4 () (_ FloatingPoint 11 53))
(declare-fun x3 () (_ FloatingPoint 11 53))
(declare-fun x2 () (_ FloatingPoint 11 53))
(declare-fun x1 () (_ FloatingPoint 11 53))
(declare-fun x0 () (_ FloatingPoint 11 53))
(assert
 (let ((?x18 (fp.add roundNearestTiesToEven (fp.mul roundNearestTiesToEven (fp #b0 #b10000000101 #x63920218b18f8) x0) (fp.mul roundNearestTiesToEven (fp #b1 #b10000000101 #x31fa13c18f453) x1))))
 (let ((?x21 (fp.add roundNearestTiesToEven ?x18 (fp.mul roundNearestTiesToEven (fp #b1 #b10000000100 #xf0d5e2622bf34) x2))))
 (let ((?x24 (fp.add roundNearestTiesToEven ?x21 (fp.mul roundNearestTiesToEven (fp #b1 #b10000000101 #x1f5dcc961fb88) x3))))
 (let ((?x27 (fp.add roundNearestTiesToEven ?x24 (fp.mul roundNearestTiesToEven (fp #b1 #b10000000101 #x6f4a892d95198) x4))))
 (let ((?x30 (fp.add roundNearestTiesToEven ?x27 (fp.mul roundNearestTiesToEven (fp #b1 #b10000000011 #x5c6e2a461705f) x5))))
 (let ((?x33 (fp.add roundNearestTiesToEven ?x30 (fp.mul roundNearestTiesToEven (fp #b1 #b10000000011 #x33805eb7c05bf) x6))))
 (let ((?x36 (fp.add roundNearestTiesToEven ?x33 (fp.mul roundNearestTiesToEven (fp #b1 #b10000000100 #xf785efbf4da7d) x7))))
 (fp.leq ?x36 (fp #b1 #b10000000100 #x3f60274f28a98))))))))))
(assert
 (let ((?x60 (fp.add roundNearestTiesToEven (fp.mul roundNearestTiesToEven (fp #b0 #b10000000100 #xbae928dc04f9e) x0) (fp.mul roundNearestTiesToEven (fp #b0 #b10000000101 #xac5d34030e4d1) x1))))
 (let ((?x63 (fp.add roundNearestTiesToEven ?x60 (fp.mul roundNearestTiesToEven (fp #b1 #b10000000011 #x1f1ddd0da3d42) x2))))
 (let ((?x66 (fp.add roundNearestTiesToEven ?x63 (fp.mul roundNearestTiesToEven (fp #b0 #b10000000011 #x3980bf8529628) x3))))
 (let ((?x69 (fp.add roundNearestTiesToEven ?x66 (fp.mul roundNearestTiesToEven (fp #b1 #b10000000100 #x538f890a91d30) x4))))
 (let ((?x72 (fp.add roundNearestTiesToEven ?x69 (fp.mul roundNearestTiesToEven (fp #b0 #b01111111100 #x2df6f9b9e55cd) x5))))
 (let ((?x75 (fp.add roundNearestTiesToEven ?x72 (fp.mul roundNearestTiesToEven (fp #b1 #b10000000100 #xc0cc9f8d18c4a) x6))))
 (let ((?x78 (fp.add roundNearestTiesToEven ?x75 (fp.mul roundNearestTiesToEven (fp #b1 #b10000000100 #xe3300afb46e73) x7))))
 (fp.leq ?x78 (fp #b0 #b10000000101 #x0b677e7c7de9d))))))))))
(assert
 (let ((?x85 (fp.add roundNearestTiesToEven (fp.mul roundNearestTiesToEven (fp #b0 #b10000000100 #xa295587c2586b) x0) (fp.mul roundNearestTiesToEven (fp #b0 #b10000000001 #x16464c948bd40) x1))))
 (let ((?x88 (fp.add roundNearestTiesToEven ?x85 (fp.mul roundNearestTiesToEven (fp #b0 #b10000000101 #x1c9e8586f21c4) x2))))
 (let ((?x91 (fp.add roundNearestTiesToEven ?x88 (fp.mul roundNearestTiesToEven (fp #b1 #b10000000101 #x6ec2683343bbe) x3))))
 (let ((?x94 (fp.add roundNearestTiesToEven ?x91 (fp.mul roundNearestTiesToEven (fp #b0 #b10000000100 #x51df296478937) x4))))
 (let ((?x97 (fp.add roundNearestTiesToEven ?x94 (fp.mul roundNearestTiesToEven (fp #b1 #b10000000100 #x3dfcd32278ef0) x5))))
 (let ((?x100 (fp.add roundNearestTiesToEven ?x97 (fp.mul roundNearestTiesToEven (fp #b0 #b10000000101 #x3cd9634a6212e) x6))))
 (let ((?x103 (fp.add roundNearestTiesToEven ?x100 (fp.mul roundNearestTiesToEven (fp #b1 #b10000000100 #x8a4bd0391d030) x7))))
 (fp.leq ?x103 (fp #b0 #b10000000100 #x1961f717d22c2))))))))))
(assert
 (let ((?x110 (fp.add roundNearestTiesToEven (fp.mul roundNearestTiesToEven (fp #b1 #b10000000101 #x89698aa55cc7c) x0) (fp.mul roundNearestTiesToEven (fp #b1 #b10000000101 #x446c7e8c8fb3b) x1))))
 (let ((?x113 (fp.add roundNearestTiesToEven ?x110 (fp.mul roundNearestTiesToEven (fp #b0 #b10000000011 #xdf91cbb5f1bee) x2))))
 (let ((?x116 (fp.add roundNearestTiesToEven ?x113 (fp.mul roundNearestTiesToEven (fp #b1 #b10000000000 #x19dc083477c42) x3))))
 (let ((?x119 (fp.add roundNearestTiesToEven ?x116 (fp.mul roundNearestTiesToEven (fp #b1 #b10000000101 #x631abcd10118e) x4))))
 (let ((?x122 (fp.add roundNearestTiesToEven ?x119 (fp.mul roundNearestTiesToEven (fp #b0 #b10000000101 #x631a9144393d9) x5))))
 (let ((?x125 (fp.add roundNearestTiesToEven ?x122 (fp.mul roundNearestTiesToEven (fp #b1 #b10000000100 #x7a65581c395e2) x6))))
 (let ((?x128 (fp.add roundNearestTiesToEven ?x125 (fp.mul roundNearestTiesToEven (fp #b0 #b10000000100 #xce9629401bc52) x7))))
 (fp.leq ?x128 (fp #b1 #b10000000100 #xcb5b832812221))))))))))
(assert
 (let ((?x135 (fp.add roundNearestTiesToEven (fp.mul roundNearestTiesToEven (fp #b1 #b10000000011 #xf782f13811c8d) x0) (fp.mul roundNearestTiesToEven (fp #b1 #b10000000100 #xf135b06b4c3b2) x1))))
 (let ((?x138 (fp.add roundNearestTiesToEven ?x135 (fp.mul roundNearestTiesToEven (fp #b0 #b10000000100 #x320c4980f2fe4) x2))))
 (let ((?x141 (fp.add roundNearestTiesToEven ?x138 (fp.mul roundNearestTiesToEven (fp #b0 #b10000000011 #xa92c57bcec415) x3))))
 (let ((?x144 (fp.add roundNearestTiesToEven ?x141 (fp.mul roundNearestTiesToEven (fp #b0 #b10000000010 #x4142fd4c8fd66) x4))))
 (let ((?x147 (fp.add roundNearestTiesToEven ?x144 (fp.mul roundNearestTiesToEven (fp #b1 #b10000000101 #x36fe9da7b71da) x5))))
 (let ((?x150 (fp.add roundNearestTiesToEven ?x147 (fp.mul roundNearestTiesToEven (fp #b1 #b10000000010 #x73fc805000dbc) x6))))
 (let ((?x153 (fp.add roundNearestTiesToEven ?x150 (fp.mul roundNearestTiesToEven (fp #b0 #b10000000100 #x3b6976dd7728d) x7))))
 (fp.leq ?x153 (fp #b0 #b10000000100 #x289b0382aa590))))))))))
(assert
 (let ((?x160 (fp.add roundNearestTiesToEven (fp.mul roundNearestTiesToEven (fp #b0 #b10000000100 #x6b4e30a94247f) x0) (fp.mul roundNearestTiesToEven (fp #b0 #b10000000101 #x74e244ec96842) x1))))
 (let ((?x163 (fp.add roundNearestTiesToEven ?x160 (fp.mul roundNearestTiesToEven (fp #b0 #b10000000101 #x2be97ce79e72b) x2))))
 (let ((?x166 (fp.add roundNearestTiesToEven ?x163 (fp.mul roundNearestTiesToEven (fp #b0 #b01111111111 #x9fbe047362bd8) x3))))
 (let ((?x169 (fp.add roundNearestTiesToEven ?x166 (fp.mul roundNearestTiesToEven (fp #b1 #b10000000100 #x3cf287a066805) x4))))
 (let ((?x172 (fp.add roundNearestTiesToEven ?x169 (fp.mul roundNearestTiesToEven (fp #b1 #b10000000101 #x53f0cf2e31546) x5))))
 (let ((?x175 (fp.add roundNearestTiesToEven ?x172 (fp.mul roundNearestTiesToEven (fp #b1 #b10000000101 #x66ffa71e912ad) x6))))
 (let ((?x178 (fp.add roundNearestTiesToEven ?x175 (fp.mul roundNearestTiesToEven (fp #b0 #b01111111111 #x5d44a3f5d496c) x7))))
 (fp.leq ?x178 (fp #b0 #b10000000101 #x1ed02b7192bad))))))))))
(assert
 (let ((?x185 (fp.add roundNearestTiesToEven (fp.mul roundNearestTiesToEven (fp #b0 #b10000000100 #xd9187b09850ae) x0) (fp.mul roundNearestTiesToEven (fp #b1 #b10000000100 #xad4dea61e3548) x1))))
 (let ((?x188 (fp.add roundNearestTiesToEven ?x185 (fp.mul roundNearestTiesToEven (fp #b1 #b10000000101 #x391610e3647a8) x2))))
 (let ((?x191 (fp.add roundNearestTiesToEven ?x188 (fp.mul roundNearestTiesToEven (fp #b0 #b10000000100 #x554df3b3db0fb) x3))))
 (let ((?x194 (fp.add roundNearestTiesToEven ?x191 (fp.mul roundNearestTiesToEven (fp #b1 #b10000000010 #xd74f1f0c3097c) x4))))
 (let ((?x197 (fp.add roundNearestTiesToEven ?x194 (fp.mul roundNearestTiesToEven (fp #b0 #b10000000100 #x11de52960ea74) x5))))
 (let ((?x200 (fp.add roundNearestTiesToEven ?x197 (fp.mul roundNearestTiesToEven (fp #b0 #b10000000010 #x5067c7aa5c035) x6))))
 (let ((?x203 (fp.add roundNearestTiesToEven ?x200 (fp.mul roundNearestTiesToEven (fp #b0 #b10000000101 #x58bc6d8c50a9b) x7))))
 (fp.leq ?x203 (fp #b0 #b10000000100 #x64bad7551d48b))))))))))
(assert
 (let ((?x210 (fp.add roundNearestTiesToEven (fp.mul roundNearestTiesToEven (fp #b0 #b10000000101 #x28d4c5c520b75) x0) (fp.mul roundNearestTiesToEven (fp #b0 #b10000000100 #xb4701e8b1d675) x1))))
 (let ((?x213 (fp.add roundNearestTiesToEven ?x210 (fp.mul roundNearestTiesToEven (fp #b1 #b10000000100 #xa53a31d372375) x2))))
 (let ((?x216 (fp.add roundNearestTiesToEven ?x213 (fp.mul roundNearestTiesToEven (fp #b1 #b10000000100 #xa42063ac4adb3) x3))))
 (let ((?x219 (fp.add roundNearestTiesToEven ?x216 (fp.mul roundNearestTiesToEven (fp #b0 #b10000000100 #x5675a984dad76) x4))))
 (let ((?x222 (fp.add roundNearestTiesToEven ?x219 (fp.mul roundNearestTiesToEven (fp #b1 #b10000000010 #xfe14f8f34a119) x5))))
 (let ((?x225 (fp.add roundNearestTiesToEven ?x222 (fp.mul roundNearestTiesToEven (fp #b1 #b10000000101 #x67f443bf78a96) x6))))
 (let ((?x228 (fp.add roundNearestTiesToEven ?x225 (fp.mul roundNearestTiesToEven (fp #b0 #b10000000011 #xf56f1b5dc1776) x7))))
 (fp.leq ?x228 (fp #b0 #b10000000101 #x8d16638ad72cb))))))))))
(assert
 (let ((?x235 (fp.add roundNearestTiesToEven (fp.mul roundNearestTiesToEven (fp #b1 #b10000000101 #x4e46e9d4c849e) x0) (fp.mul roundNearestTiesToEven (fp #b0 #b10000000101 #x0409c0947a329) x1))))
 (let ((?x238 (fp.add roundNearestTiesToEven ?x235 (fp.mul roundNearestTiesToEven (fp #b1 #b10000000100 #x5a36fdbc6d497) x2))))
 (let ((?x241 (fp.add roundNearestTiesToEven ?x238 (fp.mul roundNearestTiesToEven (fp #b0 #b10000000101 #x44ab4f9fb34ab) x3))))
 (let ((?x244 (fp.add roundNearestTiesToEven ?x241 (fp.mul roundNearestTiesToEven (fp #b0 #b10000000101 #x65d5c5b275a0e) x4))))
 (let ((?x247 (fp.add roundNearestTiesToEven ?x244 (fp.mul roundNearestTiesToEven (fp #b0 #b10000000100 #x94de72ca8e7c3) x5))))
 (let ((?x250 (fp.add roundNearestTiesToEven ?x247 (fp.mul roundNearestTiesToEven (fp #b0 #b10000000100 #x60f166d339dbb) x6))))
 (let ((?x253 (fp.add roundNearestTiesToEven ?x250 (fp.mul roundNearestTiesToEven (fp #b1 #b10000000010 #xd7a1ea1b8d8de) x7))))
 (fp.leq ?x253 (fp #b1 #b10000000100 #xf7cabe1bb3bf6))))))))))
(assert
 (let ((?x260 (fp.add roundNearestTiesToEven (fp.mul roundNearestTiesToEven (fp #b0 #b01111111111 #x6c0c1fa9947e0) x0) (fp.mul roundNearestTiesToEven (fp #b0 #b10000000100 #x7c2726c7c6d84) x1))))
(let ((?x263 (fp.add roundNearestTiesToEven ?x260 (fp.mul roundNearestTiesToEven (fp #b1 #b10000000010 #xea9cac47a2519) x2))))
(let ((?x266 (fp.add roundNearestTiesToEven ?x263 (fp.mul roundNearestTiesToEven (fp #b0 #b10000000100 #x28df39266e6d0) x3))))
(let ((?x269 (fp.add roundNearestTiesToEven ?x266 (fp.mul roundNearestTiesToEven (fp #b1 #b10000000010 #x993e50c6c86c8) x4))))
(let ((?x272 (fp.add roundNearestTiesToEven ?x269 (fp.mul roundNearestTiesToEven (fp #b1 #b10000000100 #x10fe0d1991553) x5))))
(let ((?x275 (fp.add roundNearestTiesToEven ?x272 (fp.mul roundNearestTiesToEven (fp #b0 #b10000000010 #x2eff964c08858) x6))))
(let ((?x278 (fp.add roundNearestTiesToEven ?x275 (fp.mul roundNearestTiesToEven (fp #b0 #b10000000100 #x6745875d025ed) x7))))
(fp.leq ?x278 (fp #b1 #b10000000101 #x7955340d167dd))))))))))
(check-sat)
(exit)
